PACE2017-TrackA-master/styleguide.gr
p tw 493 1250
1 2
2 3
2 1
3 4
3 2
4 5
4 3
5 6
5 4
6 7
6 5
7 8
7 6
8 9
8 7
9 10
9 8
10 11
10 9
11 12
11 10
12 13
12 11
13 14
13 12
14 15
14 13
15 16
15 14
16 17
16 15
17 18
17 16
18 19
18 17
19 20
19 18
20 21
20 19
21 22
21 20
22 23
22 21
23 24
23 22
24 25
24 23
25 26
25 24
26 27
26 25
27 28
27 26
28 29
28 27
29 30
29 28
30 31
30 29
31 32
31 30
32 33
32 31
33 34
33 32
34 35
34 33
35 36
35 34
36 37
36 35
37 38
37 36
38 39
38 37
39 40
39 38
40 41
40 39
41 42
41 40
42 43
42 41
43 44
43 42
44 45
44 43
45 46
45 44
46 47
46 45
47 48
47 46
48 49
48 47
49 50
49 48
50 51
50 49
51 52
51 50
52 53
52 51
53 54
53 52
54 55
54 53
55 56
55 54
56 57
56 55
57 58
57 56
58 59
58 57
59 60
59 58
60 61
60 59
61 62
61 60
62 63
62 61
63 64
63 62
64 65
64 63
65 66
65 64
66 67
66 65
67 68
67 66
68 69
68 67
69 70
69 68
70 71
70 69
71 72
71 70
72 73
72 71
73 74
73 72
74 75
74 73
75 76
75 74
76 77
76 75
77 78
77 76
78 79
78 77
79 80
79 78
80 81
80 79
81 82
81 80
82 83
82 81
83 84
83 82
84 85
84 83
85 86
85 84
86 87
86 85
87 88
87 86
88 89
88 87
89 90
89 88
90 91
90 89
91 92
91 90
92 93
92 91
93 94
93 92
94 95
94 93
95 96
95 94
96 97
96 95
97 98
97 96
98 99
98 97
99 100
99 98
100 101
100 99
101 102
101 100
102 103
102 101
103 104
103 102
104 105
104 103
105 106
105 104
106 107
106 105
107 108
107 106
108 109
108 107
109 110
109 108
110 111
110 109
111 112
111 110
112 113
112 111
113 114
113 112
114 115
114 113
115 116
115 114
116 117
116 115
117 118
117 116
118 119
118 117
119 120
119 118
120 121
120 119
121 122
121 120
122 123
122 121
123 124
123 122
124 125
124 123
125 126
125 124
126 127
126 125
127 128
127 126
128 129
128 127
129 130
129 128
130 131
130 129
131 132
131 130
132 134
132 133
132 131
133 141
133 132
134 135
134 132
135 136
135 134
136 138
136 137
136 135
137 138
137 136
138 140
138 139
138 137
138 136
139 140
139 138
140 141
140 139
140 138
141 142
141 143
141 133
141 140
142 150
142 141
143 145
143 144
143 141
144 145
144 143
145 147
145 146
145 144
145 143
146 147
146 145
147 149
147 148
147 146
147 145
148 149
148 147
149 150
149 148
149 147
150 151
150 152
150 142
150 149
151 152
151 150
152 158
152 153
152 151
152 155
152 150
153 154
153 152
154 164
154 153
155 156
155 152
156 157
156 155
157 158
157 156
158 160
158 159
158 157
158 152
159 160
159 158
160 162
160 161
160 159
160 163
160 158
161 180
161 160
162 163
162 160
163 164
163 162
163 160
164 171
164 170
164 169
164 168
164 167
164 166
164 165
164 154
164 174
164 163
165 179
165 164
166 173
166 164
167 178
167 164
168 177
168 164
169 176
169 164
170 175
170 164
171 172
171 164
172 173
172 171
173 174
173 166
173 172
174 175
174 173
174 164
175 176
175 170
175 174
176 177
176 169
176 175
177 178
177 168
177 176
178 179
178 167
178 177
179 180
179 165
179 178
180 182
180 181
180 161
180 179
181 183
181 180
182 187
182 186
182 184
182 185
182 180
183 232
183 181
184 187
184 182
185 189
185 182
186 188
186 182
187 188
187 184
187 182
188 189
188 186
188 187
189 192
189 191
189 190
189 185
189 188
190 233
190 189
191 192
191 189
192 195
192 193
192 196
192 191
192 189
193 194
193 192
194 195
194 193
195 194
195 197
195 192
196 197
196 192
197 199
197 198
197 196
197 195
198 199
198 197
199 200
199 198
199 197
200 201
200 199
201 202
201 200
202 203
202 201
203 205
203 204
203 202
204 205
204 203
205 207
205 206
205 204
205 203
206 213
206 205
207 209
207 208
207 205
208 209
208 207
209 211
209 210
209 208
209 207
210 211
210 209
211 212
211 210
211 209
212 214
212 211
213 214
213 206
214 216
214 215
214 213
214 212
215 216
215 214
216 217
216 215
216 214
217 219
217 218
217 216
218 219
218 217
219 220
219 223
219 218
219 217
220 221
220 219
221 222
221 220
222 223
222 221
223 225
223 222
223 224
223 219
224 225
224 223
225 227
225 226
225 224
225 223
226 227
226 225
227 229
227 228
227 226
227 225
228 229
228 227
229 230
229 228
229 227
230 232
230 231
230 229
231 378
231 230
232 233
232 183
232 230
233 234
233 235
233 190
233 232
234 235
234 233
235 236
235 234
235 233
236 239
236 238
236 237
236 235
237 240
237 236
238 239
238 236
239 238
239 241
239 236
240 241
240 237
241 242
241 240
241 239
242 243
242 241
243 244
243 242
244 245
244 243
245 247
245 246
245 244
246 247
246 245
247 252
247 249
247 248
247 246
247 245
248 249
248 247
249 251
249 250
249 248
249 247
250 251
250 249
251 253
251 250
251 249
252 254
252 253
252 247
253 255
253 252
253 251
254 256
254 255
254 252
255 257
255 254
255 253
256 258
256 257
256 254
257 259
257 256
257 255
258 259
258 256
259 261
259 260
259 258
259 257
260 261
260 259
261 263
261 262
261 260
261 259
262 263
262 261
263 264
263 262
263 261
264 265
264 263
265 266
265 264
266 268
266 267
266 265
267 268
267 266
268 270
268 269
268 267
268 266
269 270
269 268
270 271
270 274
270 269
270 268
271 272
271 270
272 273
272 271
273 274
273 272
274 277
274 276
274 273
274 275
274 270
275 278
275 274
276 277
276 274
277 280
277 276
277 279
277 274
278 379
278 275
279 280
279 277
280 281
280 279
280 282
280 277
281 282
281 280
282 284
282 283
282 281
282 280
283 284
283 282
284 285
284 283
284 282
285 287
285 286
285 284
286 287
286 285
287 289
287 288
287 286
287 290
287 285
288 290
288 287
289 377
289 287
290 291
290 293
290 288
290 292
290 287
291 332
291 290
292 293
292 290
293 294
293 292
293 295
293 290
294 295
294 293
295 297
295 296
295 294
295 293
296 297
296 295
297 298
297 296
297 300
297 295
298 299
298 297
299 302
299 298
300 301
300 297
301 302
301 300
302 303
302 299
302 301
303 304
303 302
304 307
304 306
304 305
304 303
305 333
305 304
306 307
306 304
307 308
307 306
307 309
307 304
308 309
308 307
309 310
309 308
309 307
310 312
310 311
310 309
311 312
311 310
312 313
312 311
312 310
313 314
313 312
314 315
314 313
315 316
315 314
316 407
316 317
316 315
317 319
317 318
317 316
318 319
318 317
319 321
319 320
319 318
319 317
320 321
320 319
321 323
321 322
321 320
321 324
321 319
322 325
322 321
323 324
323 321
324 325
324 323
324 321
325 326
325 322
325 324
326 327
326 325
327 329
327 328
327 326
328 331
328 327
329 330
329 327
330 331
330 329
331 332
331 328
331 330
332 333
332 291
332 331
333 334
333 335
333 305
333 332
334 335
334 333
335 337
335 336
335 334
335 333
336 337
336 335
337 339
337 338
337 336
337 335
338 339
338 337
339 341
339 340
339 338
339 337
340 341
340 339
341 343
341 342
341 340
341 339
342 343
342 341
343 344
343 342
343 341
344 346
344 345
344 343
345 346
345 344
346 348
346 347
346 345
346 344
347 348
347 346
348 350
348 349
348 347
348 346
349 350
349 348
350 352
350 351
350 349
350 348
351 352
351 350
352 354
352 353
352 351
352 350
353 354
353 352
354 356
354 355
354 353
354 352
355 356
355 354
356 358
356 357
356 355
356 354
357 358
357 356
358 360
358 359
358 357
358 356
359 360
359 358
360 362
360 361
360 359
360 358
361 362
361 360
362 364
362 363
362 361
362 360
363 364
363 362
364 366
364 365
364 363
364 362
365 366
365 364
366 367
366 365
366 364
367 369
367 368
367 366
368 369
368 367
369 371
369 370
369 368
369 367
370 371
370 369
371 373
371 372
371 370
371 369
372 373
372 371
373 374
373 372
373 371
374 376
374 375
374 373
375 376
375 374
376 377
376 380
376 375
376 374
377 378
377 289
377 376
378 379
378 231
378 377
379 381
379 278
379 378
380 381
380 376
381 383
381 382
381 405
381 380
381 379
382 383
382 381
383 384
383 382
383 381
384 385
384 383
385 387
385 386
385 384
386 387
386 385
387 388
387 386
387 385
388 389
388 387
389 390
389 388
390 391
390 389
391 392
391 390
392 394
392 393
392 391
393 394
393 392
394 395
394 393
394 392
395 396
395 394
396 398
396 397
396 395
397 398
397 396
398 399
398 397
398 396
399 400
399 398
400 401
400 399
401 402
401 400
402 403
402 401
403 404
403 402
404 406
404 403
405 406
405 381
406 408
406 405
406 409
406 404
407 471
407 316
408 409
408 406
409 410
409 408
409 406
410 411
410 409
411 412
411 410
412 413
412 411
413 415
413 414
413 412
414 415
414 413
415 417
415 416
415 414
415 413
416 417
416 415
417 422
417 418
417 421
417 416
417 415
418 419
418 417
419 420
419 418
420 421
420 419
421 425
421 420
421 422
421 417
422 423
422 421
422 417
423 424
423 422
424 425
424 423
425 428
425 427
425 424
425 426
425 421
426 429
426 425
427 428
427 425
428 427
428 430
428 425
429 430
429 426
430 431
430 429
430 428
431 432
431 430
432 433
432 431
433 435
433 434
433 432
434 435
434 433
435 436
435 434
435 433
436 437
436 435
437 439
437 438
437 436
438 439
438 437
439 441
439 440
439 438
439 437
440 441
440 439
441 443
441 442
441 440
441 439
442 443
442 441
443 444
443 442
443 441
444 446
444 445
444 443
445 446
445 444
446 447
446 445
446 444
447 448
447 446
448 449
448 447
449 450
449 448
450 451
450 449
451 454
451 452
451 450
452 453
452 451
453 454
453 452
454 455
454 453
454 456
454 451
455 456
455 454
456 458
456 457
456 455
456 454
457 458
457 456
458 459
458 457
458 456
459 461
459 460
459 458
460 462
460 459
461 462
461 459
462 463
462 460
462 461
463 465
463 464
463 462
464 465
464 463
465 467
465 466
465 464
465 463
466 467
466 465
467 468
467 466
467 465
468 470
468 469
468 467
469 470
469 468
470 471
470 469
470 468
471 472
471 407
471 470
472 474
472 473
472 471
473 474
473 472
474 476
474 475
474 473
474 472
475 476
475 474
476 478
476 477
476 475
476 474
477 478
477 476
478 480
478 479
478 477
478 481
478 476
479 480
479 478
480 482
480 484
480 479
480 478
481 483
481 478
482 487
482 480
483 486
483 481
484 485
484 480
485 486
485 484
486 487
486 488
486 483
486 485
487 490
487 486
487 482
488 490
488 489
488 486
489 491
489 488
490 491
490 487
490 488
491 493
491 492
491 489
491 490
492 493
492 491
493 492
493 491
