PACE2017-TrackA-master/styleguide.td
s td 484 4 493
b 1 1 2
b 2 2 3
b 3 3 4
b 4 4 5
b 5 5 6
b 6 6 7
b 7 7 8
b 8 8 9
b 9 9 10
b 10 10 11
b 11 11 12
b 12 12 13
b 13 13 14
b 14 14 15
b 15 15 16
b 16 16 17
b 17 17 18
b 18 18 19
b 19 19 20
b 20 20 21
b 21 21 22
b 22 22 23
b 23 23 24
b 24 24 25
b 25 25 26
b 26 26 27
b 27 27 28
b 28 28 29
b 29 29 30
b 30 30 31
b 31 31 32
b 32 32 33
b 33 33 34
b 34 34 35
b 35 35 36
b 36 36 37
b 37 37 38
b 38 38 39
b 39 39 40
b 40 40 41
b 41 41 42
b 42 42 43
b 43 43 44
b 44 44 45
b 45 45 46
b 46 46 47
b 47 47 48
b 48 48 49
b 49 49 50
b 50 50 51
b 51 51 52
b 52 52 53
b 53 53 54
b 54 54 55
b 55 55 56
b 56 56 57
b 57 57 58
b 58 58 59
b 59 59 60
b 60 60 61
b 61 61 62
b 62 62 63
b 63 63 64
b 64 64 65
b 65 65 66
b 66 66 67
b 67 67 68
b 68 68 69
b 69 69 70
b 70 70 71
b 71 71 72
b 72 72 73
b 73 73 74
b 74 74 75
b 75 75 76
b 76 76 77
b 77 77 78
b 78 78 79
b 79 79 80
b 80 80 81
b 81 81 82
b 82 82 83
b 83 83 84
b 84 84 85
b 85 85 86
b 86 86 87
b 87 87 88
b 88 88 89
b 89 89 90
b 90 90 91
b 91 91 92
b 92 92 93
b 93 93 94
b 94 94 95
b 95 95 96
b 96 96 97
b 97 97 98
b 98 98 99
b 99 99 100
b 100 100 101
b 101 101 102
b 102 102 103
b 103 103 104
b 104 104 105
b 105 105 106
b 106 106 107
b 107 107 108
b 108 108 109
b 109 109 110
b 110 110 111
b 111 111 112
b 112 112 113
b 113 113 114
b 114 114 115
b 115 115 116
b 116 116 117
b 117 117 118
b 118 118 119
b 119 119 120
b 120 120 121
b 121 121 122
b 122 122 123
b 123 123 124
b 124 124 125
b 125 125 126
b 126 126 127
b 127 127 128
b 128 128 129
b 129 129 130
b 130 130 131
b 131 131 132
b 132 136 137 138
b 133 138 139 140
b 134 143 144 145
b 135 145 146 147
b 136 147 148 149
b 137 150 151 152
b 138 158 159 160
b 139 160 162 163
b 140 182 184 187
b 141 189 191 192
b 142 197 198 199
b 143 203 204 205
b 144 207 208 209
b 145 209 210 211
b 146 214 215 216
b 147 217 218 219
b 148 223 224 225
b 149 225 226 227
b 150 227 228 229
b 151 233 234 235
b 152 236 238 239
b 153 245 246 247
b 154 247 248 249
b 155 249 250 251
b 156 259 260 261
b 157 261 262 263
b 158 266 267 268
b 159 268 269 270
b 160 274 276 277
b 161 277 279 280
b 162 280 281 282
b 163 282 283 284
b 164 285 286 287
b 165 287 288 290
b 166 290 292 293
b 167 293 294 295
b 168 295 296 297
b 169 304 306 307
b 170 307 308 309
b 171 310 311 312
b 172 317 318 319
b 173 319 320 321
b 174 321 323 324
b 175 333 334 335
b 176 335 336 337
b 177 337 338 339
b 178 339 340 341
b 179 341 342 343
b 180 344 345 346
b 181 346 347 348
b 182 348 349 350
b 183 350 351 352
b 184 352 353 354
b 185 354 355 356
b 186 356 357 358
b 187 358 359 360
b 188 360 361 362
b 189 362 363 364
b 190 364 365 366
b 191 367 368 369
b 192 369 370 371
b 193 371 372 373
b 194 374 375 376
b 195 381 382 383
b 196 385 386 387
b 197 392 393 394
b 198 396 397 398
b 199 406 408 409
b 200 413 414 415
b 201 415 416 417
b 202 425 427 428
b 203 433 434 435
b 204 437 438 439
b 205 439 440 441
b 206 441 442 443
b 207 444 445 446
b 208 454 455 456
b 209 456 457 458
b 210 463 464 465
b 211 465 466 467
b 212 468 469 470
b 213 472 473 474
b 214 474 475 476
b 215 476 477 478
b 216 478 479 480
b 217 491 492 493
b 218 132 133 134
b 219 133 134 141
b 220 134 135 141
b 221 135 136 141
b 222 136 138 141
b 223 138 140 141
b 224 141 142 143
b 225 142 143 150
b 226 143 145 150
b 227 145 147 150
b 228 147 149 150
b 229 150 152
b 230 152 153 154
b 231 152 154 164
b 232 152 155 156
b 233 152 156 157
b 234 152 157 158
b 235 152 158 164
b 236 158 160 164
b 237 160 163 164
b 238 160 161 164
b 239 161 164 180
b 240 164 165 179
b 241 164 166 173
b 242 164 167 178
b 243 164 168 177
b 244 164 169 176
b 245 164 170 175
b 246 164 171 172
b 247 164 172 173
b 248 164 173 174
b 249 164 174 175
b 250 164 175 176
b 251 164 176 177
b 252 164 177 178
b 253 164 178 179
b 254 164 179 180
b 255 180 181 182
b 256 181 182 183
b 257 182 183 232
b 258 182 185 189
b 259 182 186 188
b 260 182 187 188
b 261 182 188 189
b 262 182 189 232
b 263 189 190 233
b 264 192 193 194
b 265 192 194 195
b 266 192 195 197
b 267 192 196 197
b 268 189 192 197
b 269 189 197 199
b 270 189 199 200
b 271 189 200 201
b 272 189 201 202
b 273 189 202 203
b 274 189 203 205
b 275 205 206 213
b 276 205 207 209
b 277 205 209 211
b 278 205 211 212
b 279 205 212 214
b 280 205 213 214
b 281 189 205 214
b 282 189 214 216
b 283 189 216 217
b 284 189 217 219
b 285 219 220 221
b 286 219 221 222
b 287 219 222 223
b 288 189 219 223
b 289 189 223 225
b 290 189 225 227
b 291 189 227 229
b 292 189 229 230
b 293 189 230 232 233
b 294 230 231 233
b 295 231 233 378
b 296 233 235 378
b 297 235 236 378
b 298 236 237 240
b 299 236 239 241
b 300 236 240 241
b 301 236 241 378
b 302 241 242 378
b 303 242 243 378
b 304 243 244 378
b 305 244 245 378
b 306 245 247 378
b 307 247 249 251
b 308 247 251 253
b 309 256 258 259
b 310 259 261 263
b 311 259 263 264
b 312 259 264 265
b 313 259 265 266
b 314 259 266 268
b 315 259 268 270
b 316 270 271 272
b 317 270 272 273
b 318 270 273 274
b 319 259 270 274
b 320 274 275 278
b 321 274 277 280
b 322 274 278 379
b 323 274 280 282
b 324 274 282 284
b 325 274 284 285
b 326 274 285 287
b 327 287 289 377
b 328 290 291 332
b 329 290 293 295
b 330 290 295 297
b 331 297 298 299
b 332 297 299 302
b 333 297 300 301
b 334 297 301 302
b 335 290 297 302
b 336 290 302 303
b 337 290 303 304
b 338 304 305 333
b 339 304 307 309
b 340 304 309 310
b 341 304 310 312
b 342 304 312 313
b 343 304 313 314
b 344 304 314 315
b 345 304 315 316
b 346 316 317 319
b 347 316 319 321
b 348 321 322 325
b 349 321 324 325
b 350 316 321 325
b 351 316 325 326
b 352 316 326 327
b 353 327 328 331
b 354 327 329 330
b 355 327 330 331
b 356 316 327 331
b 357 316 331 332
b 358 333 335 337
b 359 333 337 339
b 360 333 339 341
b 361 333 341 343
b 362 333 343 344
b 363 333 344 346
b 364 333 346 348
b 365 333 348 350
b 366 333 350 352
b 367 333 352 354
b 368 333 354 356
b 369 333 356 358
b 370 333 358 360
b 371 333 360 362
b 372 333 362 364
b 373 333 364 366
b 374 333 366 367
b 375 333 367 369
b 376 333 369 371
b 377 333 371 373
b 378 333 373 374
b 379 333 374 376
b 380 376 380 381
b 381 381 383 384
b 382 381 384 385
b 383 381 385 387
b 384 381 387 388
b 385 381 388 389
b 386 381 389 390
b 387 381 390 391
b 388 381 391 392
b 389 381 392 394
b 390 381 394 395
b 391 381 395 396
b 392 381 396 398
b 393 381 398 399
b 394 381 399 400
b 395 381 400 401
b 396 381 401 402
b 397 381 402 403
b 398 381 403 404
b 399 381 404 406
b 400 381 405 406
b 401 381 406 409
b 402 316 407 471
b 403 381 409 410
b 404 381 410 411
b 405 381 411 412
b 406 381 412 413
b 407 381 413 415
b 408 381 415 417
b 409 417 418 419
b 410 417 419 420
b 411 417 420 421
b 412 422 423 424
b 413 422 424 425
b 414 417 421 422 425
b 415 417 422 425
b 416 381 417 425
b 417 425 426 429
b 418 425 428 430
b 419 425 429 430
b 420 381 425 430
b 421 381 430 431
b 422 381 431 432
b 423 381 432 433
b 424 381 433 435
b 425 381 435 436
b 426 381 436 437
b 427 381 437 439
b 428 381 439 441
b 429 381 441 443
b 430 381 443 444
b 431 381 444 446
b 432 381 446 447
b 433 381 447 448
b 434 381 448 449
b 435 381 449 450
b 436 381 450 451
b 437 451 452 453
b 438 451 453 454
b 439 381 451 454
b 440 381 454 456
b 441 381 456 458
b 442 381 458 459
b 443 459 460 462
b 444 459 461 462
b 445 381 459 462
b 446 381 462 463
b 447 381 463 465
b 448 381 465 467
b 449 381 467 468
b 450 381 468 470
b 451 381 470 471
b 452 471 472 474
b 453 471 474 476
b 454 471 476 478
b 455 471 478
b 456 478 481 483
b 457 480 482 487
b 458 478 483 486
b 459 480 484 485
b 460 480 485 486
b 461 478 480 486 487
b 462 478 486 487
b 463 488 489 491
b 464 488 490 491
b 465 486 488 490
b 466 486 487 490
b 467 316 381 471
b 468 247 252 253 378
b 469 252 253 254 378
b 470 253 254 255 378
b 471 254 255 256 378
b 472 255 256 257 378
b 473 256 257 259 378
b 474 259 274 378
b 475 274 287 378 379
b 476 287 377 378 379
b 477 287 290 377 379
b 478 290 376 377 379
b 479 290 376 379 381
b 480 290 333 376 381
b 481 290 316 333 381
b 482 316 333 381
b 483 290 304 316 333
b 484 290 316 332 333
1 2
2 3
3 4
4 5
5 6
6 7
7 8
8 9
9 10
10 11
11 12
12 13
13 14
14 15
15 16
16 17
17 18
18 19
19 20
20 21
21 22
22 23
23 24
24 25
25 26
26 27
27 28
28 29
29 30
30 31
31 32
32 33
33 34
34 35
35 36
36 37
37 38
38 39
39 40
40 41
41 42
42 43
43 44
44 45
45 46
46 47
47 48
48 49
49 50
50 51
51 52
52 53
53 54
54 55
55 56
56 57
57 58
58 59
59 60
60 61
61 62
62 63
63 64
64 65
65 66
66 67
67 68
68 69
69 70
70 71
71 72
72 73
73 74
74 75
75 76
76 77
77 78
78 79
79 80
80 81
81 82
82 83
83 84
84 85
85 86
86 87
87 88
88 89
89 90
90 91
91 92
92 93
93 94
94 95
95 96
96 97
97 98
98 99
99 100
100 101
101 102
102 103
103 104
104 105
105 106
106 107
107 108
108 109
109 110
110 111
111 112
112 113
113 114
114 115
115 116
116 117
117 118
118 119
119 120
120 121
121 122
122 123
123 124
124 125
125 126
126 127
127 128
128 129
129 130
130 131
131 218
132 222
133 223
134 226
135 227
136 228
137 229
138 236
139 237
140 260
141 268
142 269
143 274
144 276
145 277
146 282
147 284
148 289
149 290
150 291
151 296
152 299
153 306
154 307
155 307
156 310
157 310
158 314
159 315
160 321
161 321
162 323
163 324
164 326
165 477
166 329
167 329
168 330
169 339
170 339
171 341
172 346
173 347
174 349
175 358
176 358
177 359
178 360
179 361
180 363
181 364
182 365
183 366
184 367
185 368
186 369
187 370
188 371
189 372
190 373
191 375
192 376
193 377
194 379
195 381
196 383
197 389
198 392
199 401
200 407
201 408
202 418
203 424
204 427
205 428
206 429
207 431
208 440
209 441
210 447
211 448
212 450
213 452
214 453
215 454
216 461
217 464
218 219
219 220
220 221
221 222
222 223
223 224
224 225
225 226
226 227
227 228
228 229
229 235
230 231
231 235
232 233
233 234
234 235
235 236
236 238
237 238
238 239
239 254
240 254
241 248
242 253
243 252
244 251
245 250
246 247
247 248
248 249
249 250
250 251
251 252
252 253
253 254
254 255
255 256
256 257
257 262
258 262
259 261
260 261
261 262
262 293
263 293
264 265
265 266
266 268
267 268
268 269
269 270
270 271
271 272
272 273
273 274
274 281
275 280
276 277
277 278
278 279
279 281
280 281
281 282
282 283
283 284
284 288
285 286
286 287
287 288
288 289
289 290
290 291
291 292
292 293
293 294
294 295
295 296
296 297
297 301
298 300
299 301
300 301
301 302
302 303
303 304
304 305
305 306
306 468
307 308
308 468
309 473
310 311
311 312
312 313
313 314
314 315
315 319
316 317
317 318
318 319
319 474
320 322
321 323
322 475
323 324
324 325
325 326
326 475
327 477
328 484
329 330
330 335
331 332
332 335
333 334
334 335
335 336
336 337
337 483
338 483
339 340
340 341
341 342
342 343
343 344
344 345
345 483
346 347
347 350
348 350
349 350
350 351
351 352
352 356
353 356
354 355
355 356
356 357
357 484
358 359
359 360
360 361
361 362
362 363
363 364
364 365
365 366
366 367
367 368
368 369
369 370
370 371
371 372
372 373
373 374
374 375
375 376
376 377
377 378
378 379
379 480
380 480
381 382
382 383
383 384
384 385
385 386
386 387
387 388
388 389
389 390
390 391
391 392
392 393
393 394
394 395
395 396
396 397
397 398
398 399
399 401
400 401
401 403
402 467
403 404
404 405
405 406
406 407
407 408
408 416
409 410
410 411
411 414
412 413
413 415
414 415
415 416
416 420
417 419
418 420
419 420
420 421
421 422
422 423
423 424
424 425
425 426
426 427
427 428
428 429
429 430
430 431
431 432
432 433
433 434
434 435
435 436
436 439
437 438
438 439
439 440
440 441
441 442
442 445
443 445
444 445
445 446
446 447
447 448
448 449
449 450
450 451
451 467
452 467
452 453
453 454
454 461
454 455
456 458
457 461
458 461
459 460
460 461
461 466
461 462
463 464
464 465
465 466
467 481
468 469
469 470
470 471
471 472
472 473
473 474
474 475
475 476
476 477
477 478
478 479
479 480
480 481
481 483
481 484
481 482
